
-4.84
-4.68
-4.52
-4.52
-4.52
-4.44
-4.4
-4.4
-4.24
-4.24
-4.2
-4.16
-4.16
-4.08
-4.0
-4.0
-3.96
-3.88
-3.84
-3.72
-0.44
-0.44
-0.44
-0.44
-0.44
-0.44
-0.44
-0.44
-0.44
-0.44
-0.44
-0.44
-0.44
-0.44
-0.28
-0.28
-0.28
-0.28
-0.28
-0.28